p cnf 78 1063
1 2 3 4 5 6 0
-1 2 3 4 5 6 0
1 -2 -3 4 5 6 0
1 2 -3 4 5 6 0
-1 -2 3 4 5 6 0
-1 -2 -3 4 5 6 0
-1 2 3 -4 -5 -6 0
-1 2 3 -4 5 -6 0
1 2 3 4 -5 -6 0
1 2 3 -4 -5 -6 0
-1 2 3 4 5 -6 0
1 2 3 4 5 -6 0
1 2 -3 4 -5 6 0
1 -2 -3 4 -5 6 0
1 2 -3 -4 -5 -6 0
1 2 -3 4 -5 -6 0
1 -2 -3 -4 -5 6 0
1 -2 -3 -4 -5 -6 0
-1 -2 -3 -4 -5 -6 0
-1 -2 -3 -4 -5 6 0
-1 -2 3 -4 5 -6 0
-1 -2 3 -4 -5 -6 0
-1 -2 -3 -4 5 6 0
-1 -2 3 -4 5 6 0
1 2 3 7 8 9 0
-1 2 3 7 8 9 0
1 -2 -3 7 8 9 0
1 2 -3 7 8 9 0
-1 -2 3 7 8 9 0
-1 -2 -3 7 8 9 0
-1 2 3 -7 -8 -9 0
-1 2 3 -7 8 -9 0
1 2 3 7 -8 -9 0
1 2 3 -7 -8 -9 0
-1 2 3 7 8 -9 0
1 2 3 7 8 -9 0
1 2 -3 7 -8 9 0
1 -2 -3 7 -8 9 0
1 2 -3 -7 -8 -9 0
1 2 -3 7 -8 -9 0
1 -2 -3 -7 -8 9 0
1 -2 -3 -7 -8 -9 0
-1 -2 -3 -7 -8 -9 0
-1 -2 -3 -7 -8 9 0
-1 -2 3 -7 8 -9 0
-1 -2 3 -7 -8 -9 0
-1 -2 -3 -7 8 9 0
-1 -2 3 -7 8 9 0
1 2 3 11 12 13 0
-1 2 3 11 12 13 0
1 -2 -3 11 12 13 0
1 2 -3 11 12 13 0
-1 -2 3 11 12 13 0
-1 -2 -3 11 12 13 0
-1 2 3 -11 -12 -13 0
-1 2 3 -11 12 -13 0
1 2 3 11 -12 -13 0
1 2 3 -11 -12 -13 0
-1 2 3 11 12 -13 0
1 2 3 11 12 -13 0
1 2 -3 11 -12 13 0
1 -2 -3 11 -12 13 0
1 2 -3 -11 -12 -13 0
1 2 -3 11 -12 -13 0
1 -2 -3 -11 -12 13 0
1 -2 -3 -11 -12 -13 0
-1 -2 -3 -11 -12 -13 0
-1 -2 -3 -11 -12 13 0
-1 -2 3 -11 12 -13 0
-1 -2 3 -11 -12 -13 0
-1 -2 -3 -11 12 13 0
-1 -2 3 -11 12 13 0
1 2 3 16 17 18 0
-1 2 3 16 17 18 0
1 -2 -3 16 17 18 0
1 2 -3 16 17 18 0
-1 -2 3 16 17 18 0
-1 -2 -3 16 17 18 0
-1 2 3 -16 -17 -18 0
-1 2 3 -16 17 -18 0
1 2 3 16 -17 -18 0
1 2 3 -16 -17 -18 0
-1 2 3 16 17 -18 0
1 2 3 16 17 -18 0
1 2 -3 16 -17 18 0
1 -2 -3 16 -17 18 0
1 2 -3 -16 -17 -18 0
1 2 -3 16 -17 -18 0
1 -2 -3 -16 -17 18 0
1 -2 -3 -16 -17 -18 0
-1 -2 -3 -16 -17 -18 0
-1 -2 -3 -16 -17 18 0
-1 -2 3 -16 17 -18 0
-1 -2 3 -16 -17 -18 0
-1 -2 -3 -16 17 18 0
-1 -2 3 -16 17 18 0
1 4 5 7 8 10 0
-1 4 5 7 8 10 0
1 -4 -5 7 8 10 0
1 4 -5 7 8 10 0
-1 -4 5 7 8 10 0
-1 -4 -5 7 8 10 0
-1 4 5 -7 -8 -10 0
-1 4 5 -7 8 -10 0
1 4 5 7 -8 -10 0
1 4 5 -7 -8 -10 0
-1 4 5 7 8 -10 0
1 4 5 7 8 -10 0
1 4 -5 7 -8 10 0
1 -4 -5 7 -8 10 0
1 4 -5 -7 -8 -10 0
1 4 -5 7 -8 -10 0
1 -4 -5 -7 -8 10 0
1 -4 -5 -7 -8 -10 0
-1 -4 -5 -7 -8 -10 0
-1 -4 -5 -7 -8 10 0
-1 -4 5 -7 8 -10 0
-1 -4 5 -7 -8 -10 0
-1 -4 -5 -7 8 10 0
-1 -4 5 -7 8 10 0
1 4 5 11 12 14 0
-1 4 5 11 12 14 0
1 -4 -5 11 12 14 0
1 4 -5 11 12 14 0
-1 -4 5 11 12 14 0
-1 -4 -5 11 12 14 0
-1 4 5 -11 -12 -14 0
-1 4 5 -11 12 -14 0
1 4 5 11 -12 -14 0
1 4 5 -11 -12 -14 0
-1 4 5 11 12 -14 0
1 4 5 11 12 -14 0
1 4 -5 11 -12 14 0
1 -4 -5 11 -12 14 0
1 4 -5 -11 -12 -14 0
1 4 -5 11 -12 -14 0
1 -4 -5 -11 -12 14 0
1 -4 -5 -11 -12 -14 0
-1 -4 -5 -11 -12 -14 0
-1 -4 -5 -11 -12 14 0
-1 -4 5 -11 12 -14 0
-1 -4 5 -11 -12 -14 0
-1 -4 -5 -11 12 14 0
-1 -4 5 -11 12 14 0
1 4 5 16 17 19 0
-1 4 5 16 17 19 0
1 -4 -5 16 17 19 0
1 4 -5 16 17 19 0
-1 -4 5 16 17 19 0
-1 -4 -5 16 17 19 0
-1 4 5 -16 -17 -19 0
-1 4 5 -16 17 -19 0
1 4 5 16 -17 -19 0
1 4 5 -16 -17 -19 0
-1 4 5 16 17 -19 0
1 4 5 16 17 -19 0
1 4 -5 16 -17 19 0
1 -4 -5 16 -17 19 0
1 4 -5 -16 -17 -19 0
1 4 -5 16 -17 -19 0
1 -4 -5 -16 -17 19 0
1 -4 -5 -16 -17 -19 0
-1 -4 -5 -16 -17 -19 0
-1 -4 -5 -16 -17 19 0
-1 -4 5 -16 17 -19 0
-1 -4 5 -16 -17 -19 0
-1 -4 -5 -16 17 19 0
-1 -4 5 -16 17 19 0
1 7 8 11 12 15 0
-1 7 8 11 12 15 0
1 -7 -8 11 12 15 0
1 7 -8 11 12 15 0
-1 -7 8 11 12 15 0
-1 -7 -8 11 12 15 0
-1 7 8 -11 -12 -15 0
-1 7 8 -11 12 -15 0
1 7 8 11 -12 -15 0
1 7 8 -11 -12 -15 0
-1 7 8 11 12 -15 0
1 7 8 11 12 -15 0
1 7 -8 11 -12 15 0
1 -7 -8 11 -12 15 0
1 7 -8 -11 -12 -15 0
1 7 -8 11 -12 -15 0
1 -7 -8 -11 -12 15 0
1 -7 -8 -11 -12 -15 0
-1 -7 -8 -11 -12 -15 0
-1 -7 -8 -11 -12 15 0
-1 -7 8 -11 12 -15 0
-1 -7 8 -11 -12 -15 0
-1 -7 -8 -11 12 15 0
-1 -7 8 -11 12 15 0
1 7 8 16 17 20 0
-1 7 8 16 17 20 0
1 -7 -8 16 17 20 0
1 7 -8 16 17 20 0
-1 -7 8 16 17 20 0
-1 -7 -8 16 17 20 0
-1 7 8 -16 -17 -20 0
-1 7 8 -16 17 -20 0
1 7 8 16 -17 -20 0
1 7 8 -16 -17 -20 0
-1 7 8 16 17 -20 0
1 7 8 16 17 -20 0
1 7 -8 16 -17 20 0
1 -7 -8 16 -17 20 0
1 7 -8 -16 -17 -20 0
1 7 -8 16 -17 -20 0
1 -7 -8 -16 -17 20 0
1 -7 -8 -16 -17 -20 0
-1 -7 -8 -16 -17 -20 0
-1 -7 -8 -16 -17 20 0
-1 -7 8 -16 17 -20 0
-1 -7 8 -16 -17 -20 0
-1 -7 -8 -16 17 20 0
-1 -7 8 -16 17 20 0
1 11 12 16 17 21 0
-1 11 12 16 17 21 0
1 -11 -12 16 17 21 0
1 11 -12 16 17 21 0
-1 -11 12 16 17 21 0
-1 -11 -12 16 17 21 0
-1 11 12 -16 -17 -21 0
-1 11 12 -16 17 -21 0
1 11 12 16 -17 -21 0
1 11 12 -16 -17 -21 0
-1 11 12 16 17 -21 0
1 11 12 16 17 -21 0
1 11 -12 16 -17 21 0
1 -11 -12 16 -17 21 0
1 11 -12 -16 -17 -21 0
1 11 -12 16 -17 -21 0
1 -11 -12 -16 -17 21 0
1 -11 -12 -16 -17 -21 0
-1 -11 -12 -16 -17 -21 0
-1 -11 -12 -16 -17 21 0
-1 -11 12 -16 17 -21 0
-1 -11 12 -16 -17 -21 0
-1 -11 -12 -16 17 21 0
-1 -11 12 -16 17 21 0
2 4 6 7 9 10 0
-2 4 6 7 9 10 0
2 -4 -6 7 9 10 0
2 4 -6 7 9 10 0
-2 -4 6 7 9 10 0
-2 -4 -6 7 9 10 0
-2 4 6 -7 -9 -10 0
-2 4 6 -7 9 -10 0
2 4 6 7 -9 -10 0
2 4 6 -7 -9 -10 0
-2 4 6 7 9 -10 0
2 4 6 7 9 -10 0
2 4 -6 7 -9 10 0
2 -4 -6 7 -9 10 0
2 4 -6 -7 -9 -10 0
2 4 -6 7 -9 -10 0
2 -4 -6 -7 -9 10 0
2 -4 -6 -7 -9 -10 0
-2 -4 -6 -7 -9 -10 0
-2 -4 -6 -7 -9 10 0
-2 -4 6 -7 9 -10 0
-2 -4 6 -7 -9 -10 0
-2 -4 -6 -7 9 10 0
-2 -4 6 -7 9 10 0
2 4 6 11 13 14 0
-2 4 6 11 13 14 0
2 -4 -6 11 13 14 0
2 4 -6 11 13 14 0
-2 -4 6 11 13 14 0
-2 -4 -6 11 13 14 0
-2 4 6 -11 -13 -14 0
-2 4 6 -11 13 -14 0
2 4 6 11 -13 -14 0
2 4 6 -11 -13 -14 0
-2 4 6 11 13 -14 0
2 4 6 11 13 -14 0
2 4 -6 11 -13 14 0
2 -4 -6 11 -13 14 0
2 4 -6 -11 -13 -14 0
2 4 -6 11 -13 -14 0
2 -4 -6 -11 -13 14 0
2 -4 -6 -11 -13 -14 0
-2 -4 -6 -11 -13 -14 0
-2 -4 -6 -11 -13 14 0
-2 -4 6 -11 13 -14 0
-2 -4 6 -11 -13 -14 0
-2 -4 -6 -11 13 14 0
-2 -4 6 -11 13 14 0
2 4 6 16 18 19 0
-2 4 6 16 18 19 0
2 -4 -6 16 18 19 0
2 4 -6 16 18 19 0
-2 -4 6 16 18 19 0
-2 -4 -6 16 18 19 0
-2 4 6 -16 -18 -19 0
-2 4 6 -16 18 -19 0
2 4 6 16 -18 -19 0
2 4 6 -16 -18 -19 0
-2 4 6 16 18 -19 0
2 4 6 16 18 -19 0
2 4 -6 16 -18 19 0
2 -4 -6 16 -18 19 0
2 4 -6 -16 -18 -19 0
2 4 -6 16 -18 -19 0
2 -4 -6 -16 -18 19 0
2 -4 -6 -16 -18 -19 0
-2 -4 -6 -16 -18 -19 0
-2 -4 -6 -16 -18 19 0
-2 -4 6 -16 18 -19 0
-2 -4 6 -16 -18 -19 0
-2 -4 -6 -16 18 19 0
-2 -4 6 -16 18 19 0
2 7 9 11 13 15 0
-2 7 9 11 13 15 0
2 -7 -9 11 13 15 0
2 7 -9 11 13 15 0
-2 -7 9 11 13 15 0
-2 -7 -9 11 13 15 0
-2 7 9 -11 -13 -15 0
-2 7 9 -11 13 -15 0
2 7 9 11 -13 -15 0
2 7 9 -11 -13 -15 0
-2 7 9 11 13 -15 0
2 7 9 11 13 -15 0
2 7 -9 11 -13 15 0
2 -7 -9 11 -13 15 0
2 7 -9 -11 -13 -15 0
2 7 -9 11 -13 -15 0
2 -7 -9 -11 -13 15 0
2 -7 -9 -11 -13 -15 0
-2 -7 -9 -11 -13 -15 0
-2 -7 -9 -11 -13 15 0
-2 -7 9 -11 13 -15 0
-2 -7 9 -11 -13 -15 0
-2 -7 -9 -11 13 15 0
-2 -7 9 -11 13 15 0
2 7 9 16 18 20 0
-2 7 9 16 18 20 0
2 -7 -9 16 18 20 0
2 7 -9 16 18 20 0
-2 -7 9 16 18 20 0
-2 -7 -9 16 18 20 0
-2 7 9 -16 -18 -20 0
-2 7 9 -16 18 -20 0
2 7 9 16 -18 -20 0
2 7 9 -16 -18 -20 0
-2 7 9 16 18 -20 0
2 7 9 16 18 -20 0
2 7 -9 16 -18 20 0
2 -7 -9 16 -18 20 0
2 7 -9 -16 -18 -20 0
2 7 -9 16 -18 -20 0
2 -7 -9 -16 -18 20 0
2 -7 -9 -16 -18 -20 0
-2 -7 -9 -16 -18 -20 0
-2 -7 -9 -16 -18 20 0
-2 -7 9 -16 18 -20 0
-2 -7 9 -16 -18 -20 0
-2 -7 -9 -16 18 20 0
-2 -7 9 -16 18 20 0
2 11 13 16 18 21 0
-2 11 13 16 18 21 0
2 -11 -13 16 18 21 0
2 11 -13 16 18 21 0
-2 -11 13 16 18 21 0
-2 -11 -13 16 18 21 0
-2 11 13 -16 -18 -21 0
-2 11 13 -16 18 -21 0
2 11 13 16 -18 -21 0
2 11 13 -16 -18 -21 0
-2 11 13 16 18 -21 0
2 11 13 16 18 -21 0
2 11 -13 16 -18 21 0
2 -11 -13 16 -18 21 0
2 11 -13 -16 -18 -21 0
2 11 -13 16 -18 -21 0
2 -11 -13 -16 -18 21 0
2 -11 -13 -16 -18 -21 0
-2 -11 -13 -16 -18 -21 0
-2 -11 -13 -16 -18 21 0
-2 -11 13 -16 18 -21 0
-2 -11 13 -16 -18 -21 0
-2 -11 -13 -16 18 21 0
-2 -11 13 -16 18 21 0
4 7 10 11 14 15 0
-4 7 10 11 14 15 0
4 -7 -10 11 14 15 0
4 7 -10 11 14 15 0
-4 -7 10 11 14 15 0
-4 -7 -10 11 14 15 0
-4 7 10 -11 -14 -15 0
-4 7 10 -11 14 -15 0
4 7 10 11 -14 -15 0
4 7 10 -11 -14 -15 0
-4 7 10 11 14 -15 0
4 7 10 11 14 -15 0
4 7 -10 11 -14 15 0
4 -7 -10 11 -14 15 0
4 7 -10 -11 -14 -15 0
4 7 -10 11 -14 -15 0
4 -7 -10 -11 -14 15 0
4 -7 -10 -11 -14 -15 0
-4 -7 -10 -11 -14 -15 0
-4 -7 -10 -11 -14 15 0
-4 -7 10 -11 14 -15 0
-4 -7 10 -11 -14 -15 0
-4 -7 -10 -11 14 15 0
-4 -7 10 -11 14 15 0
4 7 10 16 19 20 0
-4 7 10 16 19 20 0
4 -7 -10 16 19 20 0
4 7 -10 16 19 20 0
-4 -7 10 16 19 20 0
-4 -7 -10 16 19 20 0
-4 7 10 -16 -19 -20 0
-4 7 10 -16 19 -20 0
4 7 10 16 -19 -20 0
4 7 10 -16 -19 -20 0
-4 7 10 16 19 -20 0
4 7 10 16 19 -20 0
4 7 -10 16 -19 20 0
4 -7 -10 16 -19 20 0
4 7 -10 -16 -19 -20 0
4 7 -10 16 -19 -20 0
4 -7 -10 -16 -19 20 0
4 -7 -10 -16 -19 -20 0
-4 -7 -10 -16 -19 -20 0
-4 -7 -10 -16 -19 20 0
-4 -7 10 -16 19 -20 0
-4 -7 10 -16 -19 -20 0
-4 -7 -10 -16 19 20 0
-4 -7 10 -16 19 20 0
4 11 14 16 19 21 0
-4 11 14 16 19 21 0
4 -11 -14 16 19 21 0
4 11 -14 16 19 21 0
-4 -11 14 16 19 21 0
-4 -11 -14 16 19 21 0
-4 11 14 -16 -19 -21 0
-4 11 14 -16 19 -21 0
4 11 14 16 -19 -21 0
4 11 14 -16 -19 -21 0
-4 11 14 16 19 -21 0
4 11 14 16 19 -21 0
4 11 -14 16 -19 21 0
4 -11 -14 16 -19 21 0
4 11 -14 -16 -19 -21 0
4 11 -14 16 -19 -21 0
4 -11 -14 -16 -19 21 0
4 -11 -14 -16 -19 -21 0
-4 -11 -14 -16 -19 -21 0
-4 -11 -14 -16 -19 21 0
-4 -11 14 -16 19 -21 0
-4 -11 14 -16 -19 -21 0
-4 -11 -14 -16 19 21 0
-4 -11 14 -16 19 21 0
7 11 15 16 20 21 0
-7 11 15 16 20 21 0
7 -11 -15 16 20 21 0
7 11 -15 16 20 21 0
-7 -11 15 16 20 21 0
-7 -11 -15 16 20 21 0
-7 11 15 -16 -20 -21 0
-7 11 15 -16 20 -21 0
7 11 15 16 -20 -21 0
7 11 15 -16 -20 -21 0
-7 11 15 16 20 -21 0
7 11 15 16 20 -21 0
7 11 -15 16 -20 21 0
7 -11 -15 16 -20 21 0
7 11 -15 -16 -20 -21 0
7 11 -15 16 -20 -21 0
7 -11 -15 -16 -20 21 0
7 -11 -15 -16 -20 -21 0
-7 -11 -15 -16 -20 -21 0
-7 -11 -15 -16 -20 21 0
-7 -11 15 -16 20 -21 0
-7 -11 15 -16 -20 -21 0
-7 -11 -15 -16 20 21 0
-7 -11 15 -16 20 21 0
3 5 6 8 9 10 0
-3 5 6 8 9 10 0
3 -5 -6 8 9 10 0
3 5 -6 8 9 10 0
-3 -5 6 8 9 10 0
-3 -5 -6 8 9 10 0
-3 5 6 -8 -9 -10 0
-3 5 6 -8 9 -10 0
3 5 6 8 -9 -10 0
3 5 6 -8 -9 -10 0
-3 5 6 8 9 -10 0
3 5 6 8 9 -10 0
3 5 -6 8 -9 10 0
3 -5 -6 8 -9 10 0
3 5 -6 -8 -9 -10 0
3 5 -6 8 -9 -10 0
3 -5 -6 -8 -9 10 0
3 -5 -6 -8 -9 -10 0
-3 -5 -6 -8 -9 -10 0
-3 -5 -6 -8 -9 10 0
-3 -5 6 -8 9 -10 0
-3 -5 6 -8 -9 -10 0
-3 -5 -6 -8 9 10 0
-3 -5 6 -8 9 10 0
3 5 6 12 13 14 0
-3 5 6 12 13 14 0
3 -5 -6 12 13 14 0
3 5 -6 12 13 14 0
-3 -5 6 12 13 14 0
-3 -5 -6 12 13 14 0
-3 5 6 -12 -13 -14 0
-3 5 6 -12 13 -14 0
3 5 6 12 -13 -14 0
3 5 6 -12 -13 -14 0
-3 5 6 12 13 -14 0
3 5 6 12 13 -14 0
3 5 -6 12 -13 14 0
3 -5 -6 12 -13 14 0
3 5 -6 -12 -13 -14 0
3 5 -6 12 -13 -14 0
3 -5 -6 -12 -13 14 0
3 -5 -6 -12 -13 -14 0
-3 -5 -6 -12 -13 -14 0
-3 -5 -6 -12 -13 14 0
-3 -5 6 -12 13 -14 0
-3 -5 6 -12 -13 -14 0
-3 -5 -6 -12 13 14 0
-3 -5 6 -12 13 14 0
3 5 6 17 18 19 0
-3 5 6 17 18 19 0
3 -5 -6 17 18 19 0
3 5 -6 17 18 19 0
-3 -5 6 17 18 19 0
-3 -5 -6 17 18 19 0
-3 5 6 -17 -18 -19 0
-3 5 6 -17 18 -19 0
3 5 6 17 -18 -19 0
3 5 6 -17 -18 -19 0
-3 5 6 17 18 -19 0
3 5 6 17 18 -19 0
3 5 -6 17 -18 19 0
3 -5 -6 17 -18 19 0
3 5 -6 -17 -18 -19 0
3 5 -6 17 -18 -19 0
3 -5 -6 -17 -18 19 0
3 -5 -6 -17 -18 -19 0
-3 -5 -6 -17 -18 -19 0
-3 -5 -6 -17 -18 19 0
-3 -5 6 -17 18 -19 0
-3 -5 6 -17 -18 -19 0
-3 -5 -6 -17 18 19 0
-3 -5 6 -17 18 19 0
3 8 9 12 13 15 0
-3 8 9 12 13 15 0
3 -8 -9 12 13 15 0
3 8 -9 12 13 15 0
-3 -8 9 12 13 15 0
-3 -8 -9 12 13 15 0
-3 8 9 -12 -13 -15 0
-3 8 9 -12 13 -15 0
3 8 9 12 -13 -15 0
3 8 9 -12 -13 -15 0
-3 8 9 12 13 -15 0
3 8 9 12 13 -15 0
3 8 -9 12 -13 15 0
3 -8 -9 12 -13 15 0
3 8 -9 -12 -13 -15 0
3 8 -9 12 -13 -15 0
3 -8 -9 -12 -13 15 0
3 -8 -9 -12 -13 -15 0
-3 -8 -9 -12 -13 -15 0
-3 -8 -9 -12 -13 15 0
-3 -8 9 -12 13 -15 0
-3 -8 9 -12 -13 -15 0
-3 -8 -9 -12 13 15 0
-3 -8 9 -12 13 15 0
3 8 9 17 18 20 0
-3 8 9 17 18 20 0
3 -8 -9 17 18 20 0
3 8 -9 17 18 20 0
-3 -8 9 17 18 20 0
-3 -8 -9 17 18 20 0
-3 8 9 -17 -18 -20 0
-3 8 9 -17 18 -20 0
3 8 9 17 -18 -20 0
3 8 9 -17 -18 -20 0
-3 8 9 17 18 -20 0
3 8 9 17 18 -20 0
3 8 -9 17 -18 20 0
3 -8 -9 17 -18 20 0
3 8 -9 -17 -18 -20 0
3 8 -9 17 -18 -20 0
3 -8 -9 -17 -18 20 0
3 -8 -9 -17 -18 -20 0
-3 -8 -9 -17 -18 -20 0
-3 -8 -9 -17 -18 20 0
-3 -8 9 -17 18 -20 0
-3 -8 9 -17 -18 -20 0
-3 -8 -9 -17 18 20 0
-3 -8 9 -17 18 20 0
3 12 13 17 18 21 0
-3 12 13 17 18 21 0
3 -12 -13 17 18 21 0
3 12 -13 17 18 21 0
-3 -12 13 17 18 21 0
-3 -12 -13 17 18 21 0
-3 12 13 -17 -18 -21 0
-3 12 13 -17 18 -21 0
3 12 13 17 -18 -21 0
3 12 13 -17 -18 -21 0
-3 12 13 17 18 -21 0
3 12 13 17 18 -21 0
3 12 -13 17 -18 21 0
3 -12 -13 17 -18 21 0
3 12 -13 -17 -18 -21 0
3 12 -13 17 -18 -21 0
3 -12 -13 -17 -18 21 0
3 -12 -13 -17 -18 -21 0
-3 -12 -13 -17 -18 -21 0
-3 -12 -13 -17 -18 21 0
-3 -12 13 -17 18 -21 0
-3 -12 13 -17 -18 -21 0
-3 -12 -13 -17 18 21 0
-3 -12 13 -17 18 21 0
5 8 10 12 14 15 0
-5 8 10 12 14 15 0
5 -8 -10 12 14 15 0
5 8 -10 12 14 15 0
-5 -8 10 12 14 15 0
-5 -8 -10 12 14 15 0
-5 8 10 -12 -14 -15 0
-5 8 10 -12 14 -15 0
5 8 10 12 -14 -15 0
5 8 10 -12 -14 -15 0
-5 8 10 12 14 -15 0
5 8 10 12 14 -15 0
5 8 -10 12 -14 15 0
5 -8 -10 12 -14 15 0
5 8 -10 -12 -14 -15 0
5 8 -10 12 -14 -15 0
5 -8 -10 -12 -14 15 0
5 -8 -10 -12 -14 -15 0
-5 -8 -10 -12 -14 -15 0
-5 -8 -10 -12 -14 15 0
-5 -8 10 -12 14 -15 0
-5 -8 10 -12 -14 -15 0
-5 -8 -10 -12 14 15 0
-5 -8 10 -12 14 15 0
5 8 10 17 19 20 0
-5 8 10 17 19 20 0
5 -8 -10 17 19 20 0
5 8 -10 17 19 20 0
-5 -8 10 17 19 20 0
-5 -8 -10 17 19 20 0
-5 8 10 -17 -19 -20 0
-5 8 10 -17 19 -20 0
5 8 10 17 -19 -20 0
5 8 10 -17 -19 -20 0
-5 8 10 17 19 -20 0
5 8 10 17 19 -20 0
5 8 -10 17 -19 20 0
5 -8 -10 17 -19 20 0
5 8 -10 -17 -19 -20 0
5 8 -10 17 -19 -20 0
5 -8 -10 -17 -19 20 0
5 -8 -10 -17 -19 -20 0
-5 -8 -10 -17 -19 -20 0
-5 -8 -10 -17 -19 20 0
-5 -8 10 -17 19 -20 0
-5 -8 10 -17 -19 -20 0
-5 -8 -10 -17 19 20 0
-5 -8 10 -17 19 20 0
5 12 14 17 19 21 0
-5 12 14 17 19 21 0
5 -12 -14 17 19 21 0
5 12 -14 17 19 21 0
-5 -12 14 17 19 21 0
-5 -12 -14 17 19 21 0
-5 12 14 -17 -19 -21 0
-5 12 14 -17 19 -21 0
5 12 14 17 -19 -21 0
5 12 14 -17 -19 -21 0
-5 12 14 17 19 -21 0
5 12 14 17 19 -21 0
5 12 -14 17 -19 21 0
5 -12 -14 17 -19 21 0
5 12 -14 -17 -19 -21 0
5 12 -14 17 -19 -21 0
5 -12 -14 -17 -19 21 0
5 -12 -14 -17 -19 -21 0
-5 -12 -14 -17 -19 -21 0
-5 -12 -14 -17 -19 21 0
-5 -12 14 -17 19 -21 0
-5 -12 14 -17 -19 -21 0
-5 -12 -14 -17 19 21 0
-5 -12 14 -17 19 21 0
8 12 15 17 20 21 0
-8 12 15 17 20 21 0
8 -12 -15 17 20 21 0
8 12 -15 17 20 21 0
-8 -12 15 17 20 21 0
-8 -12 -15 17 20 21 0
-8 12 15 -17 -20 -21 0
-8 12 15 -17 20 -21 0
8 12 15 17 -20 -21 0
8 12 15 -17 -20 -21 0
-8 12 15 17 20 -21 0
8 12 15 17 20 -21 0
8 12 -15 17 -20 21 0
8 -12 -15 17 -20 21 0
8 12 -15 -17 -20 -21 0
8 12 -15 17 -20 -21 0
8 -12 -15 -17 -20 21 0
8 -12 -15 -17 -20 -21 0
-8 -12 -15 -17 -20 -21 0
-8 -12 -15 -17 -20 21 0
-8 -12 15 -17 20 -21 0
-8 -12 15 -17 -20 -21 0
-8 -12 -15 -17 20 21 0
-8 -12 15 -17 20 21 0
6 9 10 13 14 15 0
-6 9 10 13 14 15 0
6 -9 -10 13 14 15 0
6 9 -10 13 14 15 0
-6 -9 10 13 14 15 0
-6 -9 -10 13 14 15 0
-6 9 10 -13 -14 -15 0
-6 9 10 -13 14 -15 0
6 9 10 13 -14 -15 0
6 9 10 -13 -14 -15 0
-6 9 10 13 14 -15 0
6 9 10 13 14 -15 0
6 9 -10 13 -14 15 0
6 -9 -10 13 -14 15 0
6 9 -10 -13 -14 -15 0
6 9 -10 13 -14 -15 0
6 -9 -10 -13 -14 15 0
6 -9 -10 -13 -14 -15 0
-6 -9 -10 -13 -14 -15 0
-6 -9 -10 -13 -14 15 0
-6 -9 10 -13 14 -15 0
-6 -9 10 -13 -14 -15 0
-6 -9 -10 -13 14 15 0
-6 -9 10 -13 14 15 0
6 9 10 18 19 20 0
-6 9 10 18 19 20 0
6 -9 -10 18 19 20 0
6 9 -10 18 19 20 0
-6 -9 10 18 19 20 0
-6 -9 -10 18 19 20 0
-6 9 10 -18 -19 -20 0
-6 9 10 -18 19 -20 0
6 9 10 18 -19 -20 0
6 9 10 -18 -19 -20 0
-6 9 10 18 19 -20 0
6 9 10 18 19 -20 0
6 9 -10 18 -19 20 0
6 -9 -10 18 -19 20 0
6 9 -10 -18 -19 -20 0
6 9 -10 18 -19 -20 0
6 -9 -10 -18 -19 20 0
6 -9 -10 -18 -19 -20 0
-6 -9 -10 -18 -19 -20 0
-6 -9 -10 -18 -19 20 0
-6 -9 10 -18 19 -20 0
-6 -9 10 -18 -19 -20 0
-6 -9 -10 -18 19 20 0
-6 -9 10 -18 19 20 0
6 13 14 18 19 21 0
-6 13 14 18 19 21 0
6 -13 -14 18 19 21 0
6 13 -14 18 19 21 0
-6 -13 14 18 19 21 0
-6 -13 -14 18 19 21 0
-6 13 14 -18 -19 -21 0
-6 13 14 -18 19 -21 0
6 13 14 18 -19 -21 0
6 13 14 -18 -19 -21 0
-6 13 14 18 19 -21 0
6 13 14 18 19 -21 0
6 13 -14 18 -19 21 0
6 -13 -14 18 -19 21 0
6 13 -14 -18 -19 -21 0
6 13 -14 18 -19 -21 0
6 -13 -14 -18 -19 21 0
6 -13 -14 -18 -19 -21 0
-6 -13 -14 -18 -19 -21 0
-6 -13 -14 -18 -19 21 0
-6 -13 14 -18 19 -21 0
-6 -13 14 -18 -19 -21 0
-6 -13 -14 -18 19 21 0
-6 -13 14 -18 19 21 0
9 13 15 18 20 21 0
-9 13 15 18 20 21 0
9 -13 -15 18 20 21 0
9 13 -15 18 20 21 0
-9 -13 15 18 20 21 0
-9 -13 -15 18 20 21 0
-9 13 15 -18 -20 -21 0
-9 13 15 -18 20 -21 0
9 13 15 18 -20 -21 0
9 13 15 -18 -20 -21 0
-9 13 15 18 20 -21 0
9 13 15 18 20 -21 0
9 13 -15 18 -20 21 0
9 -13 -15 18 -20 21 0
9 13 -15 -18 -20 -21 0
9 13 -15 18 -20 -21 0
9 -13 -15 -18 -20 21 0
9 -13 -15 -18 -20 -21 0
-9 -13 -15 -18 -20 -21 0
-9 -13 -15 -18 -20 21 0
-9 -13 15 -18 20 -21 0
-9 -13 15 -18 -20 -21 0
-9 -13 -15 -18 20 21 0
-9 -13 15 -18 20 21 0
10 14 15 19 20 21 0
-10 14 15 19 20 21 0
10 -14 -15 19 20 21 0
10 14 -15 19 20 21 0
-10 -14 15 19 20 21 0
-10 -14 -15 19 20 21 0
-10 14 15 -19 -20 -21 0
-10 14 15 -19 20 -21 0
10 14 15 19 -20 -21 0
10 14 15 -19 -20 -21 0
-10 14 15 19 20 -21 0
10 14 15 19 20 -21 0
10 14 -15 19 -20 21 0
10 -14 -15 19 -20 21 0
10 14 -15 -19 -20 -21 0
10 14 -15 19 -20 -21 0
10 -14 -15 -19 -20 21 0
10 -14 -15 -19 -20 -21 0
-10 -14 -15 -19 -20 -21 0
-10 -14 -15 -19 -20 21 0
-10 -14 15 -19 20 -21 0
-10 -14 15 -19 -20 -21 0
-10 -14 -15 -19 20 21 0
-10 -14 15 -19 20 21 0

 -11 16 0
 22 0
 -22 -11 -12 17 0
 -22 -11 23 0
 -22 16 -12 17 0
 -22 16 23 0
 -23 -12 -13 18 0
 -23 -12 24 0
 -23 17 -13 18 0
 -23 17 24 0
 -24 -13 -14 19 0
 -24 -13 25 0
 -24 18 -14 19 0
 -24 18 25 0
 -25 -14 -15 20 0
 -25 -14 26 0
 -25 19 -15 20 0
 -25 19 26 0
 -26 -15 -21 0
 -26 20 -21 0
 -7 11 0
 27 0
 -27 -7 -8 12 0
 -27 -7 28 0
 -27 11 -8 12 0
 -27 11 28 0
 -28 -8 -9 13 0
 -28 -8 29 0
 -28 12 -9 13 0
 -28 12 29 0
 -29 -9 -10 14 0
 -29 -9 30 0
 -29 13 -10 14 0
 -29 13 30 0
 -30 -10 -15 0
 -30 14 -15 0
 -4 7 0
 31 0
 -31 -4 -5 8 0
 -31 -4 32 0
 -31 7 -5 8 0
 -31 7 32 0
 -32 -5 -6 9 0
 -32 -5 33 0
 -32 8 -6 9 0
 -32 8 33 0
 -33 -6 -7 11 0
 -33 -6 34 0
 -33 9 -7 11 0
 -33 9 34 0
 -34 -7 -8 12 0
 -34 -7 35 0
 -34 11 -8 12 0
 -34 11 35 0
 -35 -8 -9 13 0
 -35 -8 36 0
 -35 12 -9 13 0
 -35 12 36 0
 -36 -9 -10 15 0
 -36 -9 37 0
 -36 13 -10 15 0
 -36 13 37 0
 -37 -10 -11 16 0
 -37 -10 38 0
 -37 15 -11 16 0
 -37 15 38 0
 -38 -11 -12 17 0
 -38 -11 39 0
 -38 16 -12 17 0
 -38 16 39 0
 -39 -12 -13 18 0
 -39 -12 40 0
 -39 17 -13 18 0
 -39 17 40 0
 -40 -13 -14 20 0
 -40 -13 41 0
 -40 18 -14 20 0
 -40 18 41 0
 -41 -14 -15 21 0
 -41 -14 42 0
 -41 20 -15 21 0
 -41 20 42 0
 -42 -15 -19 -10 0
 -42 -15 43 0
 -42 21 -19 -10 0
 -42 21 43 0
 -2 4 0
 44 0
 -44 -2 -3 5 0
 -44 -2 45 0
 -44 4 -3 5 0
 -44 4 45 0
 -45 -3 -4 7 0
 -45 -3 46 0
 -45 5 -4 7 0
 -45 5 46 0
 -46 -4 -5 8 0
 -46 -4 47 0
 -46 7 -5 8 0
 -46 7 47 0
 -47 -5 -6 10 0
 -47 -5 48 0
 -47 8 -6 10 0
 -47 8 48 0
 -48 -6 -7 11 0
 -48 -6 49 0
 -48 10 -7 11 0
 -48 10 49 0
 -49 -7 -8 12 0
 -49 -7 50 0
 -49 11 -8 12 0
 -49 11 50 0
 -50 -8 -9 14 0
 -50 -8 51 0
 -50 12 -9 14 0
 -50 12 51 0
 -51 -9 -10 15 0
 -51 -9 52 0
 -51 14 -10 15 0
 -51 14 52 0
 -52 -10 -11 16 0
 -52 -10 53 0
 -52 15 -11 16 0
 -52 15 53 0
 -53 -11 -12 17 0
 -53 -11 54 0
 -53 16 -12 17 0
 -53 16 54 0
 -54 -12 -13 19 0
 -54 -12 55 0
 -54 17 -13 19 0
 -54 17 55 0
 -55 -13 -14 20 0
 -55 -13 56 0
 -55 19 -14 20 0
 -55 19 56 0
 -56 -14 -15 21 0
 -56 -14 57 0
 -56 20 -15 21 0
 -56 20 57 0
 -57 -15 -18 -6 0
 -57 -15 58 0
 -57 21 -18 -6 0
 -57 21 58 0
 -58 -18 -19 -9 0
 -58 -18 59 0
 -58 -6 -19 -9 0
 -58 -6 59 0
 -2 -3 0
 60 0
 -60 -2 -4 -5 0
 -60 -2 61 0
 -60 -3 -4 -5 0
 -60 -3 61 0
 -61 -4 -6 0
 -61 -5 -6 0
 -1 2 0
 62 0
 -62 -1 -2 4 0
 -62 -1 63 0
 -62 2 -2 4 0
 -62 2 63 0
 -63 -2 -3 6 0
 -63 -2 64 0
 -63 4 -3 6 0
 -63 4 64 0
 -64 -3 -4 7 0
 -64 -3 65 0
 -64 6 -4 7 0
 -64 6 65 0
 -65 -4 -5 9 0
 -65 -4 66 0
 -65 7 -5 9 0
 -65 7 66 0
 -66 -5 -6 10 0
 -66 -5 67 0
 -66 9 -6 10 0
 -66 9 67 0
 -67 -6 -7 11 0
 -67 -6 68 0
 -67 10 -7 11 0
 -67 10 68 0
 -68 -7 -8 13 0
 -68 -7 69 0
 -68 11 -8 13 0
 -68 11 69 0
 -69 -8 -9 14 0
 -69 -8 70 0
 -69 13 -9 14 0
 -69 13 70 0
 -70 -9 -10 15 0
 -70 -9 71 0
 -70 14 -10 15 0
 -70 14 71 0
 -71 -10 -11 16 0
 -71 -10 72 0
 -71 15 -11 16 0
 -71 15 72 0
 -72 -11 -12 18 0
 -72 -11 73 0
 -72 16 -12 18 0
 -72 16 73 0
 -73 -12 -13 19 0
 -73 -12 74 0
 -73 18 -13 19 0
 -73 18 74 0
 -74 -13 -14 20 0
 -74 -13 75 0
 -74 19 -14 20 0
 -74 19 75 0
 -75 -14 -15 21 0
 -75 -14 76 0
 -75 20 -15 21 0
 -75 20 76 0
 -76 -15 -17 -3 0
 -76 -15 77 0
 -76 21 -17 -3 0
 -76 21 77 0
 -77 -17 -18 -5 0
 -77 -17 78 0
 -77 -3 -18 -5 0
 -77 -3 78 0
